# Solution for model r5_t36_m0_8 Batch Number: 4
# Finished Task: 36 / 36
# Makespan: 696.0, Total Distance: 735.0, Total Time: 122.6990
# R O S F Batch
0 0 7 0.0 0.0 -1
1 1 11 0.0 0.0 -1
2 2 32 0.0 0.0 -1
3 3 8 0.0 0.0 -1
4 4 34 0.0 0.0 -1
5 3 36 302.0 336.0 0
6 4 14 536.0 559.0 2
7 0 28 251.0 273.0 0
8 3 35 203.0 235.0 0
9 1 21 386.0 422.0 0
10 4 6 475.0 502.0 2
11 1 9 316.0 354.0 0
12 2 29 239.0 259.0 0
13 4 24 302.0 323.0 0
14 4 -1 671.0 696.0 3
15 1 18 490.0 514.0 2
16 0 -1 634.0 671.0 3
17 0 16 586.0 618.0 3
18 1 -1 522.0 543.0 3
19 0 27 432.0 468.0 2
20 2 25 434.0 457.0 2
21 1 15 439.0 471.0 1
22 0 19 402.0 422.0 0
23 2 12 180.0 208.0 0
24 4 30 352.0 382.0 0
25 2 39 492.0 519.0 3
26 2 23 158.0 180.0 0
27 0 17 537.0 559.0 2
28 0 22 273.0 296.0 0
29 2 20 336.0 370.0 0
30 4 40 390.0 422.0 0
31 3 5 280.0 302.0 0
32 2 26 82.0 114.0 0
33 3 -1 357.0 387.0 2
34 4 13 264.0 302.0 0
35 3 31 235.0 264.0 0
36 3 33 336.0 357.0 0
37 2 -1 662.0 694.0 3
38 2 37 608.0 642.0 3
39 2 38 560.0 589.0 3
40 4 10 446.0 475.0 2
